data;


param d:= 100;
param r:=5;
param p:=0.840000;
param M:=1000;
param U:=
         1         1        5.288012e-01
         2         1        8.467713e-02
         3         1        7.399960e-01
         4         1        1.205560e+00
         5         1        1.020513e+00
         6         1        2.776719e+00
         7         1       -7.311629e-01
         8         1       -1.894932e+00
         9         1        1.103745e+00
        10         1       -5.158181e-01
        11         1        1.139856e-01
        12         1       -4.135924e-01
        13         1        5.597039e-01
        14         1       -1.313934e-01
        15         1       -1.988599e+00
        16         1        2.283910e-01
        17         1        1.720468e+00
        18         1       -9.405880e-02
        19         1       -1.357562e+00
        20         1       -4.152074e-01
        21         1        1.660225e+00
        22         1       -1.149683e+00
        23         1        7.226314e-01
        24         1        7.321557e-01
        25         1        1.032369e-02
        26         1       -6.061491e-01
        27         1       -4.986183e-01
        28         1       -1.094193e+00
        29         1        3.537334e-01
        30         1       -8.317952e-01
        31         1       -6.597960e-01
        32         1       -2.608206e+00
        33         1       -2.755793e-01
        34         1        3.914814e-01
        35         1        1.966205e+00
        36         1       -9.937601e-01
        37         1       -8.512875e-01
        38         1       -3.656105e-01
        39         1       -8.000862e-01
        40         1        1.602778e+00
        41         1       -1.521970e+00
        42         1        1.793404e+00
        43         1       -1.269813e+00
        44         1        8.641198e-01
        45         1        2.604139e-01
        46         1        1.077503e+00
        47         1        1.256837e+00
        48         1        2.518699e+00
        49         1       -8.981400e-01
        50         1       -7.853081e-01
        51         1       -2.248160e-01
        52         1       -1.562415e+00
        53         1        5.374715e-01
        54         1        6.211013e-02
        55         1        7.701669e-01
        56         1       -1.090001e-01
        57         1        8.552657e-01
        58         1       -1.207463e-01
        59         1       -6.156548e-01
        60         1        1.225786e-01
        61         1       -5.539993e-01
        62         1        9.883771e-03
        63         1        3.834491e+00
        64         1       -6.228864e-01
        65         1       -2.145618e-01
        66         1        3.089977e-01
        67         1        3.923029e-01
        68         1       -7.740028e-02
        69         1        1.164071e+00
        70         1       -2.903167e-01
        71         1        7.552338e-01
        72         1       -9.571252e-01
        73         1        1.700859e-01
        74         1       -4.191900e-01
        75         1       -4.559807e-03
        76         1        1.791726e-01
        77         1        1.959813e+00
        78         1       -7.469370e-01
        79         1       -6.478979e-01
        80         1        4.794526e-02
        81         1        4.218709e-01
        82         1       -5.328177e-01
        83         1        4.203321e-01
        84         1        6.427825e-03
        85         1       -6.897138e-01
        86         1        8.883329e-01
        87         1       -1.504620e+00
        88         1       -3.229466e-01
        89         1       -1.812067e-02
        90         1       -6.234606e-01
        91         1       -2.722304e-01
        92         1        4.453249e-01
        93         1       -1.014448e+00
        94         1        7.842420e-01
        95         1       -8.226511e-01
        96         1        6.225204e-01
        97         1       -7.891810e-01
        98         1       -1.005595e-01
        99         1       -8.559733e-01
       100         1        3.691818e-01
         1         2        5.002778e-01
         2         2       -8.575377e-01
         3         2        6.059755e-01
         4         2        8.689464e-01
         5         2        1.593365e+00
         6         2        2.273240e-03
         7         2        8.295512e-01
         8         2       -8.406021e-01
         9         2        1.372766e-01
        10         2        3.020094e-01
        11         2        4.832040e-01
        12         2        2.471498e-01
        13         2       -2.234332e-01
        14         2        2.604381e-01
        15         2       -6.263444e-01
        16         2       -6.192302e-01
        17         2       -6.792099e-02
        18         2       -2.545994e-01
        19         2        5.409632e-01
        20         2       -7.193992e-01
        21         2       -1.428131e+00
        22         2        1.277748e-01
        23         2        2.613027e-01
        24         2        2.122787e+00
        25         2       -5.575198e-01
        26         2        1.137336e+00
        27         2        4.018928e-01
        28         2       -2.041140e-01
        29         2        2.382706e+00
        30         2        1.598357e-01
        31         2       -9.906300e-01
        32         2       -2.423490e-01
        33         2       -7.363271e-02
        34         2        4.496933e-01
        35         2        3.809059e-02
        36         2        3.354811e-01
        37         2       -2.197442e+00
        38         2        2.326248e-01
        39         2        1.013797e+00
        40         2        4.606754e-01
        41         2       -2.274471e-01
        42         2       -9.533815e-01
        43         2       -5.190881e-01
        44         2       -1.561203e+00
        45         2        4.187715e-01
        46         2       -1.173838e+00
        47         2        1.004196e+00
        48         2       -2.628434e-01
        49         2        6.354942e-01
        50         2        5.910654e-01
        51         2        1.774709e+00
        52         2        8.840318e-01
        53         2        1.511913e+00
        54         2        1.024241e+00
        55         2        3.161084e-01
        56         2       -8.710171e-01
        57         2       -3.568832e-01
        58         2        1.061922e-01
        59         2       -9.862228e-01
        60         2        1.393513e-01
        61         2        5.979506e-01
        62         2       -6.092907e-01
        63         2        5.006974e-01
        64         2        2.214253e-01
        65         2       -1.788154e+00
        66         2       -3.576385e-01
        67         2        8.349152e-01
        68         2        2.590109e+00
        69         2       -6.019202e-01
        70         2       -9.158916e-01
        71         2        7.308420e-01
        72         2       -8.787675e-01
        73         2       -9.310940e-01
        74         2       -1.315541e+00
        75         2       -7.428640e-01
        76         2       -2.099115e+00
        77         2       -8.487559e-01
        78         2       -2.657167e-01
        79         2       -1.969467e+00
        80         2       -6.955004e-01
        81         2       -1.438389e+00
        82         2        1.390392e+00
        83         2       -4.296506e-02
        84         2       -1.136368e-01
        85         2        1.989614e-01
        86         2       -6.120081e-02
        87         2        5.556236e-01
        88         2       -4.831788e-01
        89         2        9.349631e-01
        90         2       -3.753474e-01
        91         2        1.988383e-01
        92         2       -2.718678e+00
        93         2       -8.042752e-01
        94         2       -1.089637e-01
        95         2       -3.345127e-01
        96         2        1.063305e+00
        97         2       -9.322351e-01
        98         2       -2.084969e+00
        99         2        9.137259e-01
       100         2        6.797069e-01
         1         3       -5.596843e-02
         2         3       -2.908859e-01
         3         3        6.095848e-01
         4         3       -2.961034e+00
         5         3        1.340629e-01
         6         3       -8.780929e-01
         7         3        8.113021e-01
         8         3       -4.360386e-01
         9         3       -5.581090e-01
        10         3        8.900089e-01
        11         3       -3.934301e-01
        12         3        1.246913e-01
        13         3        5.772965e-01
        14         3       -5.927407e-01
        15         3        1.065161e-01
        16         3       -5.523225e-01
        17         3       -6.814512e-01
        18         3        1.383437e+00
        19         3       -1.726373e+00
        20         3       -6.385967e-02
        21         3        5.093145e-01
        22         3        2.820056e-01
        23         3        5.257183e-01
        24         3       -7.793943e-01
        25         3        1.944663e-01
        26         3        6.329208e-02
        27         3       -1.990861e+00
        28         3        4.807631e-01
        29         3        2.094719e+00
        30         3        7.127858e-01
        31         3       -8.531472e-01
        32         3        2.717848e+00
        33         3       -1.064420e-01
        34         3       -6.959568e-01
        35         3        6.002215e-01
        36         3        1.344796e+00
        37         3       -7.746151e-01
        38         3        9.529140e-02
        39         3        3.265290e-01
        40         3       -2.080439e+00
        41         3       -8.569337e-01
        42         3       -2.823929e-01
        43         3       -4.048480e-01
        44         3        4.057030e-01
        45         3        2.513687e-01
        46         3        2.750547e+00
        47         3        1.662251e+00
        48         3        6.152421e-01
        49         3        3.652271e-01
        50         3       -1.070772e+00
        51         3        9.339204e-01
        52         3        7.647419e-01
        53         3       -2.023419e-01
        54         3       -3.572880e-01
        55         3        8.140165e-01
        56         3        6.992886e-01
        57         3        7.607834e-01
        58         3       -6.780157e-01
        59         3        1.363305e-02
        60         3       -1.638461e+00
        61         3       -2.326013e-01
        62         3        1.142797e+00
        63         3       -3.505186e-01
        64         3       -7.606296e-01
        65         3       -2.856238e-01
        66         3       -1.157481e+00
        67         3        1.519095e-02
        68         3        8.440495e-01
        69         3       -1.583799e+00
        70         3       -2.135149e+00
        71         3        7.310617e-01
        72         3        5.884684e-01
        73         3        7.497264e-01
        74         3       -3.023088e-01
        75         3        1.746300e+00
        76         3        2.470322e-01
        77         3        9.884033e-01
        78         3        8.636252e-01
        79         3       -8.024034e-01
        80         3       -2.068223e-02
        81         3       -1.018490e+00
        82         3        4.909406e-01
        83         3        4.698410e-01
        84         3        8.546242e-02
        85         3        7.530516e-01
        86         3       -1.320954e+00
        87         3        8.556048e-01
        88         3        8.623805e-01
        89         3       -4.885734e-01
        90         3        1.394249e+00
        91         3       -1.264446e+00
        92         3        2.689756e-01
        93         3       -1.176342e-01
        94         3       -6.581432e-01
        95         3        9.881936e-01
        96         3       -3.145634e-01
        97         3        1.333522e+00
        98         3       -2.935300e-01
        99         3       -1.685040e+00
       100         3        1.286555e+00
         1         4       -1.495371e+00
         2         4        1.053195e+00
         3         4       -2.263354e-01
         4         4       -4.573125e-01
         5         4       -7.463859e-01
         6         4        8.241445e-01
         7         4        4.024108e-01
         8         4       -6.644376e-01
         9         4        8.993200e-01
        10         4       -8.395053e-01
        11         4        1.769011e+00
        12         4       -5.692607e-01
        13         4       -5.061949e-01
        14         4        7.566717e-01
        15         4       -1.280200e+00
        16         4       -6.051333e-01
        17         4       -3.926119e-01
        18         4       -8.978426e-01
        19         4       -3.407490e-01
        20         4        2.804366e-01
        21         4       -1.299110e+00
        22         4       -9.232622e-01
        23         4       -6.709263e-01
        24         4        5.745980e-01
        25         4       -8.370970e-01
        26         4       -9.124968e-03
        27         4        6.766877e-02
        28         4        6.134841e-01
        29         4       -2.859940e-01
        30         4       -1.324148e+00
        31         4        1.381483e+00
        32         4       -2.689799e-01
        33         4       -3.315775e-01
        34         4        2.206873e+00
        35         4       -1.977957e+00
        36         4        2.381286e-01
        37         4        6.332111e-01
        38         4        1.975445e+00
        39         4        1.580571e+00
        40         4       -1.340036e+00
        41         4       -5.464200e-01
        42         4       -1.943683e+00
        43         4       -1.097114e+00
        44         4        1.540581e-02
        45         4       -1.046608e+00
        46         4        6.296234e-01
        47         4       -1.315790e+00
        48         4        1.677540e-01
        49         4        4.189258e-01
        50         4        3.457917e-02
        51         4       -4.355267e-01
        52         4        1.442427e-01
        53         4        1.254416e+00
        54         4        5.087884e-01
        55         4       -8.789223e-01
        56         4        4.412655e-01
        57         4        4.030892e-01
        58         4        1.226478e-01
        59         4        5.764718e-02
        60         4       -3.958382e-01
        61         4       -1.378327e+00
        62         4        4.838787e-01
        63         4       -8.618397e-01
        64         4        7.292143e-01
        65         4       -1.235777e+00
        66         4        9.423409e-01
        67         4        8.756167e-01
        68         4        3.916679e-01
        69         4       -1.608297e+00
        70         4        8.530942e-01
        71         4        6.631016e-02
        72         4        1.520450e+00
        73         4       -6.532395e-01
        74         4        1.018527e+00
        75         4       -3.240982e-02
        76         4       -3.488185e-01
        77         4       -8.601301e-01
        78         4        2.516173e+00
        79         4        8.108735e-01
        80         4       -1.379542e+00
        81         4       -3.221206e-01
        82         4       -1.469194e+00
        83         4        1.303353e+00
        84         4        1.321988e-01
        85         4        9.305350e-01
        86         4       -1.781707e+00
        87         4        1.213255e+00
        88         4       -7.030227e-01
        89         4        1.131197e+00
        90         4        2.537974e-01
        91         4        1.490180e-01
        92         4       -1.608932e+00
        93         4        3.864768e-01
        94         4       -1.943288e-01
        95         4       -6.765427e-01
        96         4        6.822655e-01
        97         4       -7.316683e-01
        98         4       -1.714857e-01
        99         4       -1.934680e+00
       100         4       -2.353827e-01
         1         5       -4.121755e-01
         2         5       -5.015109e-01
         3         5        9.297046e-02
         4         5        1.609935e-01
         5         5        3.787317e-01
         6         5        2.091866e-01
         7         5        5.881976e-01
         8         5        1.249162e-01
         9         5       -1.203821e+00
        10         5        1.330917e+00
        11         5        7.067500e-01
        12         5       -9.699953e-01
        13         5       -9.252135e-02
        14         5        7.061906e-02
        15         5       -4.821220e-01
        16         5       -3.628966e-01
        17         5        2.187734e+00
        18         5        1.008927e+00
        19         5       -2.578802e-01
        20         5        9.719920e-02
        21         5       -1.256050e+00
        22         5       -1.858497e-01
        23         5        9.012094e-01
        24         5       -6.272594e-01
        25         5       -1.285572e+00
        26         5        2.047483e+00
        27         5        9.332894e-01
        28         5        2.026966e+00
        29         5        1.899278e-01
        30         5        9.461645e-01
        31         5       -1.290980e+00
        32         5        9.770067e-01
        33         5        3.743338e-01
        34         5       -1.800284e+00
        35         5       -3.886313e-01
        36         5        1.589006e+00
        37         5        2.205990e+00
        38         5       -9.136702e-01
        39         5       -3.648417e-01
        40         5        6.844583e-01
        41         5       -1.035050e+00
        42         5       -2.410818e+00
        43         5       -7.601296e-01
        44         5       -1.453458e-01
        45         5       -2.704803e-01
        46         5       -2.196783e-01
        47         5        1.705328e-01
        48         5       -1.605172e-01
        49         5       -3.451818e-02
        50         5       -2.076304e-01
        51         5       -2.642049e-01
        52         5        5.420909e-01
        53         5       -1.408377e+00
        54         5        9.873753e-01
        55         5       -1.884112e-01
        56         5        5.568852e-01
        57         5       -1.163640e+00
        58         5       -1.195011e+00
        59         5       -1.059231e+00
        60         5       -9.006165e-01
        61         5        5.724526e-01
        62         5        7.905814e-01
        63         5       -3.874867e-01
        64         5       -9.402597e-01
        65         5        8.453231e-01
        66         5        4.896239e-01
        67         5        7.618849e-01
        68         5        1.089073e+00
        69         5       -6.458637e-01
        70         5        4.535823e-01
        71         5        1.310988e-01
        72         5        6.267146e-01
        73         5        4.863940e-01
        74         5       -2.849554e-01
        75         5       -2.314817e-01
        76         5       -4.010515e-01
        77         5        1.393951e+00
        78         5       -3.553275e-01
        79         5        2.166249e-01
        80         5        1.101679e+00
        81         5        7.604719e-01
        82         5       -1.641669e-01
        83         5       -7.583080e-01
        84         5        5.480524e-01
        85         5        4.320602e-01
        86         5        1.035276e+00
        87         5        8.580452e-01
        88         5       -7.283412e-01
        89         5        7.969743e-01
        90         5       -1.098063e+00
        91         5       -5.255982e-02
        92         5       -1.078904e+00
        93         5        1.320022e-01
        94         5        2.909810e-01
        95         5       -1.565652e-01
        96         5        1.156207e-01
        97         5        2.120550e-01
        98         5        1.256151e+00
        99         5        9.801535e-01
       100         5        3.338917e-01
;

param theta:=
    1        1.306941e+00
    2       -5.350633e-01
    3       -1.426303e+00
    4       -8.927362e-01
    5       -5.998961e-01
;
param X_true:=
    1        2.136406e+00
    2        2.718515e-01
    3       -2.626094e-02
    4        5.612562e+00
    5        8.357399e-01
    6        4.263023e+00
    7       -3.346201e+00
    8       -8.769761e-01
    9        1.997132e+00
   10       -2.089467e+00
   11       -1.483087e+00
   12        1.849366e-01
   13        4.442047e-01
   14        9.470896e-02
   15       -1.004492e+00
   16        2.186208e+00
   17        2.289136e+00
   18       -1.771377e+00
   19        9.953511e-01
   20       -5.637393e-01
   21        3.922019e+00
   22       -9.226008e-01
   23        9.651528e-02
   24        8.008499e-01
   25        1.634160e+00
   26       -2.643013e+00
   27        1.197175e+00
   28       -3.917079e+00
   29       -3.594534e+00
   30       -1.696108e+00
   31        3.855131e-01
   32       -7.681163e+00
   33       -3.248210e-01
   34        3.298482e-01
   35        3.713845e+00
   36       -4.635660e+00
   37       -7.256502e-01
   38       -2.100911e+00
   39       -3.230244e+00
   40        5.514302e+00
   41        2.595162e-01
   42        6.315852e+00
   43        6.776975e-01
   44        1.563135e+00
   45        1.005957e+00
   46       -2.169276e+00
   47        2.923157e-03
   48        2.469347e+00
   49       -2.448719e+00
   50        2.213285e-01
   51       -1.952913e+00
   52       -4.091111e+00
   53       -1.688294e-01
   54       -8.629300e-01
   55        7.092165e-01
   56       -1.495011e+00
   57        6.706972e-01
   58        1.453729e+00
   59        3.148565e-01
   60        3.386785e+00
   61        3.968262e-01
   62       -2.236100e+00
   63        6.154901e+00
   64        1.834261e-01
   65        1.581298e+00
   66        1.114377e+00
   67       -1.358275e+00
   68       -3.631385e+00
   69        6.061788e+00
   70        2.265800e+00
   71       -6.746439e-01
   72       -3.477317e+00
   73       -7.181138e-02
   74       -1.897227e-01
   75       -1.955467e+00
   76        1.469680e+00
   77        1.674031e+00
   78       -4.101872e+00
   79        4.875217e-01
   80        9.812158e-01
   81        2.625719e+00
   82       -6.047611e-01
   83       -7.988611e-01
   84       -4.795980e-01
   85       -3.186770e+00
   86        3.948833e+00
   87       -5.119560e+00
   88       -1.318942e-01
   89       -1.315064e+00
   90       -2.198130e+00
   91        1.267580e+00
   92        3.785786e+00
   93       -1.038340e+00
   94        1.972891e+00
   95       -1.436964e+00
   96        3.869474e-02
   97       -1.893805e+00
   98        7.867094e-01
   99        2.039280e+00
  100       -1.638952e+00
;
param X:=
    1        2.136406e+00
    2        2.718515e-01
    3        1.783697e+00
    4        3.959248e-01
    5        7.889093e-01
    6       -9.468637e-01
    7        6.029067e-01
    8        3.991278e-01
    9        1.310560e+00
   10       -2.841520e-01
   11       -1.574798e-01
   12        4.738924e-01
   13       -2.790501e-03
   14        1.114229e+00
   15        5.304158e-01
   16       -1.911587e-01
   17       -7.295195e-01
   18       -1.771377e+00
   19       -8.994521e-01
   20       -8.686812e-01
   21       -2.727661e-01
   22        1.497159e+00
   23       -1.470914e+00
   24        3.259213e-01
   25        1.148238e+00
   26       -2.643013e+00
   27       -2.278781e+00
   28        1.024497e+00
   29        7.614577e-01
   30       -1.118016e+00
   31        6.110452e-01
   32        4.377074e-01
   33       -9.828689e-01
   34        3.298482e-01
   35        2.034777e-01
   36       -4.635660e+00
   37       -3.859855e-01
   38        1.343197e+00
   39       -5.576715e-01
   40        5.514302e+00
   41        4.739613e-01
   42        7.372032e-01
   43        6.144881e-01
   44       -6.290317e-01
   45        2.183002e+00
   46       -2.169276e+00
   47        9.459723e-01
   48       -1.968965e+00
   49       -2.448719e+00
   50        4.064726e-01
   51        1.237007e+00
   52        7.790995e-01
   53       -5.962874e-02
   54       -1.226470e-01
   55        8.974609e-01
   56       -1.718023e-01
   57        9.032352e-01
   58       -8.149106e-02
   59        3.770034e-01
   60       -1.860616e+00
   61       -5.559147e-01
   62       -2.236100e+00
   63       -8.104843e-01
   64        1.199710e+00
   65        1.581298e+00
   66       -7.643541e-01
   67        8.443469e-01
   68       -9.462836e-02
   69        9.246311e-01
   70       -1.107544e-01
   71        4.344258e-01
   72        3.467288e-03
   73       -7.181138e-02
   74        7.292570e-01
   75       -3.565441e-01
   76        1.325312e-01
   77       -3.160739e-01
   78        1.198201e+00
   79        1.496765e+00
   80        1.353843e+00
   81       -3.457396e-02
   82       -7.014451e-01
   83       -9.241993e-02
   84        3.640465e-01
   85       -5.178112e-01
   86        9.504007e-01
   87        5.367769e-02
   88        1.063793e+00
   89        3.891971e-01
   90        6.226562e-01
   91       -9.152759e-01
   92        3.785786e+00
   93       -6.177518e-01
   94        8.714943e-02
   95        2.022745e-01
   96        4.538853e-01
   97       -1.893805e+00
   98        7.867094e-01
   99       -5.978000e-01
  100        6.357747e-02
;
param outliervec:=
    1    0
    2    0
    3    1
    4    1
    5    1
    6    1
    7    1
    8    1
    9    1
   10    1
   11    1
   12    1
   13    1
   14    1
   15    1
   16    1
   17    1
   18    0
   19    1
   20    1
   21    1
   22    1
   23    1
   24    1
   25    1
   26    0
   27    1
   28    1
   29    1
   30    1
   31    1
   32    1
   33    1
   34    0
   35    1
   36    0
   37    1
   38    1
   39    1
   40    0
   41    1
   42    1
   43    1
   44    1
   45    1
   46    0
   47    1
   48    1
   49    0
   50    1
   51    1
   52    1
   53    1
   54    1
   55    1
   56    1
   57    1
   58    1
   59    1
   60    1
   61    1
   62    0
   63    1
   64    1
   65    0
   66    1
   67    1
   68    1
   69    1
   70    1
   71    1
   72    1
   73    0
   74    1
   75    1
   76    1
   77    1
   78    1
   79    1
   80    1
   81    1
   82    1
   83    1
   84    1
   85    1
   86    1
   87    1
   88    1
   89    1
   90    1
   91    1
   92    0
   93    1
   94    1
   95    1
   96    1
   97    0
   98    0
   99    1
  100    1
;